
Cover cuts applied:  6
Implied bound cuts applied:  2
Flow cuts applied:  12
Mixed integer rounding cuts applied:  5
Zero-half cuts applied:  8
Lift and project cuts applied:  2
Gomory fractional cuts applied:  3

Root node processing (before b&c):
  Real time             =    0.07 sec. (8.13 ticks)
Parallel b&c, 4 threads:
  Real time             =    0.00 sec. (0.00 ticks)
  Sync time (average)   =    0.00 sec.
  Wait time (average)   =    0.00 sec.
                          ------------
Total (root+branch&cut) =    0.07 sec. (8.13 ticks)
Version identifier: 12.10.0.0 | 2019-11-26 | 843d4de
CPXPARAM_MIP_Interval                            10
CPXPARAM_MIP_Tolerances_AbsMIPGap                0.98999999999999999
Tried aggregator 2 times.
MIP Presolve eliminated 1050 rows and 681 columns.
MIP Presolve modified 1 coefficients.
Aggregator did 32 substitutions.
Reduced MIP has 101 rows, 107 columns, and 352 nonzeros.
Reduced MIP has 47 binaries, 60 generals, 0 SOSs, and 0 indicators.
Presolve time = 0.00 sec. (1.23 ticks)
Probing fixed 0 vars, tightened 7 bounds.
Probing changed sense of 4 constraints.
Probing time = 0.00 sec. (0.02 ticks)
Tried aggregator 1 time.
Detecting symmetries...
MIP Presolve eliminated 7 rows and 6 columns.
MIP Presolve modified 9 coefficients.
Reduced MIP has 94 rows, 101 columns, and 327 nonzeros.
Reduced MIP has 43 binaries, 58 generals, 0 SOSs, and 0 indicators.
Presolve time = 0.00 sec. (0.24 ticks)
Probing time = 0.00 sec. (0.02 ticks)
MIP emphasis: balance optimality and feasibility.
MIP search method: dynamic search.
Parallel mode: deterministic, using up to 4 threads.
Root relaxation solution time = 0.00 sec. (0.36 ticks)

        Nodes                                         Cuts/
   Node  Left     Objective  IInf  Best Integer    Best Bound    ItCnt     Gap

      0     0       13.6667    13                     13.6667       70         
      0     0       13.5000    13                    Cuts: 27       98         
      0     0       13.4091    13                    Cuts: 77      137         
      0     0       13.2000    13                    Cuts: 20      161         
      0     0       13.2000    13                    Cuts: 30      186         
      0     0       13.2000    13                     Cuts: 9      196         
*     0+    0                           10.0000       13.2000            32.00%
Detecting symmetries...
      0     0       13.1818    13       10.0000      Cuts: 20      215   31.82%
      0     0       13.1538    13       10.0000      Cuts: 24      228   31.54%
      0     0       13.1250    13       10.0000      Cuts: 24      240   31.25%
      0     0       13.1250    13       10.0000      Cuts: 14      253   31.25%
*     0+    0                           11.0000       13.1250            19.32%
Detecting symmetries...
      0     2       13.1250    61       11.0000       13.1250      253   19.32%
Elapsed time = 0.04 sec. (14.51 ticks, tree = 0.02 MB, solutions = 2)
     10     9       13.1019    23       11.0000       13.1111      358   19.19%
     20    11       12.7538    25       11.0000       13.1111      426   19.19%
     30    15       12.5000    11       11.0000       13.1111      469   19.19%
     40    11       12.9444    27       11.0000       13.1111      454   19.19%
     50    19       12.1974    16       11.0000       13.1111      518   19.19%
     60    19       12.5833    20       11.0000       13.1111      601   19.19%
     70    22       12.9868    44       11.0000       13.0833      771   18.94%
     80    40       12.0000     9       11.0000       13.0833     1039   18.94%
     90    48       12.4737    18       11.0000       13.0833     1294   18.94%
    100    40       12.3333    20       11.0000       13.0833     1123   18.94%
Elapsed time = 0.05 sec. (18.49 ticks, tree = 0.02 MB, solutions = 2)
    110    53       12.1754     8       11.0000       13.0833     1476   18.94%
    120    53        cutoff             11.0000       13.0833     1514   18.94%
    130    43        cutoff             11.0000       13.0833     1281   18.94%
    140    43       12.0000    14       11.0000       13.0833     1218   18.94%
    150    42        cutoff             11.0000       13.0833     1239   18.94%
    160    59       12.0000    16       11.0000       13.0833     1577   18.94%
    170    54       12.7778    12       11.0000       13.0833     1465   18.94%
    180    57       12.6667    28       11.0000       13.0833     1494   18.94%
    190    58       12.4912    25       11.0000       13.0833     1524   18.94%
    200    57        cutoff             11.0000       12.9868     1620   18.06%
Elapsed time = 0.05 sec. (21.07 ticks, tree = 0.02 MB, solutions = 2)
    210    65        cutoff             11.0000       12.9868     2303   18.06%
    220    79       12.0000     7       11.0000       12.9868     2522   18.06%
    230    60        cutoff             11.0000       12.9868     1831   18.06%
    240    79       12.0833    25       11.0000       12.9868     2577   18.06%
    250    72        cutoff             11.0000       12.9868     2674   18.06%
    260    73       12.0000     7       11.0000       12.9868     2766   18.06%
    270    61        cutoff             11.0000       12.9868     1925   18.06%
    280    72       12.4733    38       11.0000       12.9868     2810   18.06%
    290    67        cutoff             11.0000       12.9868     2870   18.06%
    300    62        cutoff             11.0000       12.9868     1989   18.06%
Elapsed time = 0.06 sec. (24.06 ticks, tree = 0.02 MB, solutions = 2)
    310    68       12.0000     2       11.0000       12.9868     2923   18.06%
    320    72        cutoff             11.0000       12.7331     3681   15.76%
    330    70        cutoff             11.0000       12.6667     3362   15.15%
    340    68        cutoff             11.0000       12.6667     3803   15.15%
    350    72       12.1000    35       11.0000       12.6667     3770   15.15%
    360    66        cutoff             11.0000       12.6667     3889   15.15%
    370    67        cutoff             11.0000       12.4868     3900   13.52%
    380    63       12.3158    14       11.0000       12.4868     4020   13.52%
    390    52        cutoff             11.0000       12.4868     4366   13.52%
    400    62        cutoff             11.0000       12.4737     4037   13.40%
Elapsed time = 0.06 sec. (26.81 ticks, tree = 0.02 MB, solutions = 2)
    410    50        cutoff             11.0000       12.3333     4397   12.12%
    420    49    infeasible             11.0000       12.3333     4423   12.12%
    430    31        cutoff             11.0000       12.3333     4562   12.12%
    440    43    infeasible             11.0000       12.2143     4521   11.04%
    450    19    infeasible             11.0000       12.2143     4696   11.04%
    460    11        cutoff             11.0000       12.1667     4787   10.61%
the number of Nodes = 469
